!Siglent,SMS1032XV,SVA3XA08C00002,6.0R10
!Date: 2025-12-10 05:14:16
!Data & Calibration Information:
!Freq	S11:(---)
# Hz S DB R 50
5000000	-6.94718090e-01	1.41269186e+02	
7500000	-7.81411920e-01	1.22408522e+02	
10000000	-7.65414568e-01	1.03850973e+02	
12500000	-7.30549001e-01	8.54751973e+01	
15000000	-6.81652620e-01	6.75609496e+01	
17500000	-6.34523521e-01	4.96367250e+01	
20000000	-5.82644027e-01	3.23366277e+01	
22500000	-5.41644609e-01	1.50747311e+01	
25000000	-4.83621395e-01	-1.33584689e+00	
27500000	-4.48184928e-01	-1.80290993e+01	
30000000	-4.10892654e-01	-3.39682810e+01	
32500000	-3.51538414e-01	-5.02965502e+01	
35000000	-3.50115988e-01	-6.55117242e+01	
37500000	-3.44462670e-01	-8.05255317e+01	
40000000	-4.78583607e-01	-9.52595810e+01	
42500000	-5.44952494e-01	-1.09998023e+02	
45000000	-8.84297536e-01	-1.24111700e+02	
47500000	-7.25197156e-01	-1.34840982e+02	
50000000	-7.42563764e-01	-1.48952380e+02	
52500000	-8.44018399e-01	-1.61468651e+02	
55000000	-9.14532104e-01	-1.74646520e+02	
57500000	-9.46091130e-01	1.74602232e+02	
60000000	-8.67891906e-01	1.61706072e+02	
62500000	-8.48172999e-01	1.49343614e+02	
65000000	-7.87732596e-01	1.36780724e+02	
67500000	-7.97127118e-01	1.23907383e+02	
70000000	-7.92292466e-01	1.11438618e+02	
72500000	-8.45092328e-01	9.86154934e+01	
75000000	-9.04007384e-01	8.63565255e+01	
77500000	-9.96005125e-01	7.37287555e+01	
80000000	-9.81645746e-01	6.08186661e+01	
82500000	-1.07107399e+00	4.84584624e+01	
85000000	-1.05973774e+00	3.59268256e+01	
87500000	-1.11340397e+00	2.29617866e+01	
90000000	-1.15566936e+00	1.02141550e+01	
92500000	-1.16249621e+00	-2.67174553e+00	
95000000	-1.19660563e+00	-1.54330113e+01	
97500000	-1.26178361e+00	-2.88607945e+01	
100000000	-1.30103289e+00	-4.22689359e+01	
102500000	-1.37193478e+00	-5.53524378e+01	
105000000	-1.42340261e+00	-6.83165456e+01	
107500000	-1.51270081e+00	-8.14501174e+01	
110000000	-1.70217668e+00	-9.42962036e+01	
112500000	-1.87109069e+00	-1.06662848e+02	
115000000	-2.03453502e+00	-1.18283491e+02	
117500000	-2.22136029e+00	-1.29667536e+02	
120000000	-2.38489562e+00	-1.40787606e+02	
122500000	-2.48714461e+00	-1.50773142e+02	
125000000	-2.42766415e+00	-1.60555227e+02	
127500000	-2.25068619e+00	-1.71069065e+02	
130000000	-2.13081814e+00	1.77527928e+02	
132500000	-2.05664834e+00	1.66187507e+02	
135000000	-1.98207034e+00	1.55274120e+02	
137500000	-1.90855948e+00	1.44631045e+02	
140000000	-1.67851926e+00	1.33481684e+02	
142500000	-1.53320288e+00	1.21725153e+02	
145000000	-1.41266656e+00	1.09487291e+02	
147500000	-1.39256013e+00	9.77462021e+01	
150000000	-1.38026473e+00	8.60514547e+01	
152500000	-1.40833954e+00	7.42476168e+01	
155000000	-1.37892289e+00	6.26928057e+01	
157500000	-1.29081684e+00	5.07197969e+01	
160000000	-1.27577675e+00	3.92794959e+01	
162500000	-1.33328884e+00	2.67186452e+01	
165000000	-1.39495294e+00	1.47324123e+01	
167500000	-1.42845764e+00	3.17424080e+00	
170000000	-1.42779695e+00	-8.75000813e+00	
172500000	-1.47742712e+00	-2.11481687e+01	
175000000	-1.51574175e+00	-3.39776862e+01	
177500000	-1.59162664e+00	-4.64751602e+01	
180000000	-1.72395657e+00	-5.89614585e+01	
182500000	-1.83625035e+00	-7.21536220e+01	
185000000	-2.00424237e+00	-8.51256693e+01	
187500000	-2.18882506e+00	-9.74863110e+01	
190000000	-2.36967340e+00	-1.10092683e+02	
192500000	-2.57302867e+00	-1.22171581e+02	
195000000	-2.66125150e+00	-1.35859083e+02	
197500000	-2.88713300e+00	-1.50070642e+02	
200000000	-3.27765929e+00	-1.64539569e+02	
202500000	-3.90027751e+00	-1.79350826e+02	
205000000	-4.65310428e+00	1.67165462e+02	
207500000	-5.30547651e+00	1.54664934e+02	
210000000	-5.79218430e+00	1.38990136e+02	
212500000	-6.94792743e+00	1.22395541e+02	
215000000	-8.03457072e+00	1.04516400e+02	
217500000	-1.00558580e+01	7.70786686e+01	
220000000	-1.36555456e+01	3.91126954e+01	
222500000	-1.58976615e+01	-4.29785730e+01	
225000000	-1.10438529e+01	-1.19835472e+02	
227500000	-7.26135662e+00	-1.63783020e+02	
230000000	-5.65504401e+00	1.64364518e+02	
232500000	-5.13029036e+00	1.40441125e+02	
235000000	-5.07242501e+00	1.22414900e+02	
237500000	-5.09134686e+00	1.08837239e+02	
240000000	-4.72183613e+00	9.71473268e+01	
242500000	-4.27478629e+00	8.44609078e+01	
245000000	-3.89370386e+00	7.15127425e+01	
247500000	-3.55834555e+00	5.78020542e+01	
250000000	-3.36442653e+00	4.39688803e+01	
252500000	-3.42736994e+00	3.13873800e+01	
255000000	-3.32939065e+00	2.03440457e+01	
257500000	-2.99428685e+00	8.57164741e+00	
260000000	-2.75106085e+00	-4.07869689e+00	
262500000	-2.55835949e+00	-1.66437481e+01	
265000000	-2.38375742e+00	-2.98676850e+01	
267500000	-2.30494519e+00	-4.32058335e+01	
270000000	-2.30773184e+00	-5.58988446e+01	
272500000	-2.31729354e+00	-6.83907983e+01	
275000000	-2.27824454e+00	-8.04793821e+01	
277500000	-2.25927491e+00	-9.24278952e+01	
280000000	-2.26239545e+00	-1.04229420e+02	
282500000	-2.25451199e+00	-1.16011563e+02	
285000000	-2.22023864e+00	-1.27554614e+02	
287500000	-2.21421359e+00	-1.39250554e+02	
290000000	-2.21625002e+00	-1.50821124e+02	
292500000	-2.16807342e+00	-1.62090291e+02	
295000000	-2.13428222e+00	-1.73309138e+02	
297500000	-2.10190030e+00	1.75346068e+02	
300000000	-2.05734458e+00	1.64124382e+02	
302500000	-2.02661767e+00	1.53100666e+02	
305000000	-2.08552724e+00	1.41819033e+02	
307500000	-2.07512106e+00	1.30951168e+02	
310000000	-2.10470844e+00	1.19981696e+02	
312500000	-2.11079011e+00	1.09301490e+02	
315000000	-2.08345430e+00	9.89437791e+01	
317500000	-2.08590233e+00	8.83643796e+01	
320000000	-2.07984511e+00	7.74568329e+01	
322500000	-2.08168980e+00	6.63947149e+01	
325000000	-2.09055826e+00	5.52888388e+01	
327500000	-2.13033342e+00	4.49767603e+01	
330000000	-2.19027818e+00	3.43909731e+01	
332500000	-2.17695096e+00	2.33819913e+01	
335000000	-2.16279913e+00	1.28767195e+01	
337500000	-2.14173114e+00	2.25326842e+00	
340000000	-2.08809574e+00	-8.49716241e+00	
342500000	-2.03094331e+00	-1.95545241e+01	
345000000	-1.95573129e+00	-3.10381932e+01	
347500000	-1.91651961e+00	-4.27263965e+01	
350000000	-1.89686581e+00	-5.45319957e+01	
352500000	-1.89377585e+00	-6.61338473e+01	
355000000	-1.92889583e+00	-7.78214101e+01	
357500000	-1.95492679e+00	-8.97859545e+01	
360000000	-1.96193087e+00	-1.01509454e+02	
362500000	-1.96998709e+00	-1.13216723e+02	
365000000	-1.97907360e+00	-1.24917632e+02	
367500000	-1.99249520e+00	-1.36605265e+02	
370000000	-2.03409110e+00	-1.48341215e+02	
372500000	-2.06501710e+00	-1.60194490e+02	
375000000	-2.09890934e+00	-1.71688868e+02	
377500000	-2.15728163e+00	1.76912136e+02	
380000000	-2.18673482e+00	1.65648093e+02	
382500000	-2.20010643e+00	1.54421473e+02	
385000000	-2.16426380e+00	1.43413979e+02	
387500000	-2.14990489e+00	1.32389672e+02	
390000000	-2.16116625e+00	1.21077764e+02	
392500000	-2.15214730e+00	1.10166707e+02	
395000000	-2.18694599e+00	9.92314616e+01	
397500000	-2.20561470e+00	8.81385669e+01	
400000000	-2.18790380e+00	7.70721955e+01	
402500000	-2.17822688e+00	6.62652545e+01	
405000000	-2.14238218e+00	5.50350571e+01	
407500000	-2.19248245e+00	4.43112502e+01	
410000000	-2.20036462e+00	3.32934650e+01	
412500000	-2.19574540e+00	2.24341411e+01	
415000000	-2.19822013e+00	1.14153892e+01	
417500000	-2.24737992e+00	5.76787383e-01	
420000000	-2.23822575e+00	-1.05306874e+01	
422500000	-2.25202585e+00	-2.16856184e+01	
425000000	-2.29212276e+00	-3.29100842e+01	
427500000	-2.30768127e+00	-4.42300007e+01	
430000000	-2.35303459e+00	-5.54440173e+01	
432500000	-2.38934284e+00	-6.65382094e+01	
435000000	-2.43711943e+00	-7.76527600e+01	
437500000	-2.46416413e+00	-8.90228493e+01	
440000000	-2.50593124e+00	-1.00252669e+02	
442500000	-2.49876623e+00	-1.11605362e+02	
445000000	-2.51859274e+00	-1.22803569e+02	
447500000	-2.56196333e+00	-1.34008541e+02	
450000000	-2.50748510e+00	-1.44900689e+02	
452500000	-2.55183223e+00	-1.55931556e+02	
455000000	-2.56669051e+00	-1.66944255e+02	
457500000	-2.58572880e+00	-1.78019133e+02	
460000000	-2.61845816e+00	1.70871216e+02	
462500000	-2.60455527e+00	1.60430266e+02	
465000000	-2.64713127e+00	1.49349916e+02	
467500000	-2.66076153e+00	1.38571589e+02	
470000000	-2.63597793e+00	1.27958299e+02	
472500000	-2.66042442e+00	1.17494863e+02	
475000000	-2.66915480e+00	1.07284428e+02	
477500000	-2.68567215e+00	9.65321455e+01	
480000000	-2.74443902e+00	8.64861929e+01	
482500000	-2.80181121e+00	7.63749543e+01	
485000000	-2.87210064e+00	6.66417266e+01	
487500000	-2.89684289e+00	5.64841738e+01	
490000000	-2.90759207e+00	4.60482240e+01	
492500000	-3.00808624e+00	3.62468593e+01	
495000000	-3.01610746e+00	2.60649737e+01	
497500000	-3.10842290e+00	1.62792284e+01	
500000000	-3.11257494e+00	6.25475358e+00	
502500000	-3.10802649e+00	-3.99948089e+00	
505000000	-3.12261805e+00	-1.46413336e+01	
