# Hz S DB R 50
100000000 -66.54
100266667 -62.76
100533333 -65.09
100800000 -60.91
101066667 -62.57
101333333 -59.97
101600000 -59.42
101866667 -58.51
102133333 -60.0
102400000 -60.68
102666667 -58.19
102933333 -56.17
103200000 -63.92
103466667 -58.11
103733333 -62.56
104000000 -57.1
104266667 -56.41
104533333 -58.92
104800000 -70.09
105066667 -71.81
105333333 -60.49
105600000 -61.47
105866667 -61.76
106133333 -61.74
106400000 -57.58
106666667 -64.22
106933333 -59.84
107200000 -63.2
107466667 -57.79
107733333 -60.4
108000000 -62.87
108266667 -57.84
108533333 -66.02
108800000 -62.3
109066667 -68.54
109333333 -59.79
109600000 -61.68
109866667 -61.18
110133333 -59.98
110400000 -61.71
110666667 -69.28
110933333 -64.59
111200000 -61.11
111466667 -66.9
111733333 -63.24
112000000 -63.99
112266667 -62.01
112533333 -65.9
112800000 -63.4
113066667 -63.17
113333333 -62.64
113600000 -62.26
113866667 -62.93
114133333 -58.84
114400000 -64.21
114666667 -65.11
114933333 -63.21
115200000 -59.35
115466667 -66.36
115733333 -64.2
116000000 -61.22
116266667 -62.29
116533333 -60.95
116800000 -63.9
117066667 -65.15
117333333 -60.33
117600000 -59.48
117866667 -61.13
118133333 -63.95
118400000 -60.97
118666667 -60.94
118933333 -62.2
119200000 -61.4
119466667 -63.78
119733333 -61.59
120000000 -62.19
120266667 -64.34
120533333 -63.33
120800000 -57.24
121066667 -59.71
121333333 -62.95
121600000 -60.0
121866667 -61.87
122133333 -66.55
122400000 -63.42
122666667 -60.53
122933333 -64.74
123200000 -66.26
123466667 -59.05
123733333 -61.41
124000000 -62.87
124266667 -65.48
124533333 -63.32
124800000 -60.96
125066667 -65.25
125333333 -66.17
125600000 -61.33
125866667 -63.97
126133333 -61.97
126400000 -62.11
126666667 -58.77
126933333 -61.71
127200000 -61.72
127466667 -62.85
127733333 -59.74
128000000 -60.61
128266667 -65.43
128533333 -64.18
128800000 -66.17
129066667 -61.77
129333333 -60.33
129600000 -65.6
129866667 -61.65
130133333 -63.02
130400000 -58.94
130666667 -60.29
130933333 -60.28
131200000 -62.78
131466667 -60.7
131733333 -64.92
132000000 -62.01
132266667 -62.16
132533333 -62.06
132800000 -61.37
133066667 -58.67
133333333 -63.48
133600000 -60.35
133866667 -60.9
134133333 -59.74
134400000 -58.08
134666667 -61.98
134933333 -65.85
135200000 -62.78
135466667 -63.79
135733333 -63.35
136000000 -63.46
136266667 -62.2
136533333 -57.69
136800000 -64.94
137066667 -62.95
137333333 -59.98
137600000 -63.43
137866667 -60.57
138133333 -60.32
138400000 -61.02
138666667 -60.67
138933333 -66.95
139200000 -60.78
139466667 -62.27
139733333 -63.6
140000000 -60.57
140266667 -60.81
140533333 -62.23
140800000 -66.17
141066667 -59.49
141333333 -69.64
141600000 -59.94
141866667 -59.97
142133333 -62.29
142400000 -61.87
142666667 -57.0
142933333 -63.72
143200000 -59.32
143466667 -64.44
143733333 -60.04
144000000 -60.91
144266667 -60.19
144533333 -60.31
144800000 -66.62
145066667 -58.85
145333333 -60.18
145600000 -59.01
145866667 -70.45
146133333 -64.99
146400000 -57.66
146666667 -61.7
146933333 -60.27
147200000 -57.36
147466667 -60.51
147733333 -65.06
148000000 -55.65
148266667 -62.8
148533333 -61.58
148800000 -64.27
149066667 -61.95
149333333 -58.28
149600000 -61.91
149866667 -66.76
150133333 -70.3
150400000 -63.63
150666667 -60.43
150933333 -59.42
151200000 -61.46
151466667 -59.29
151733333 -60.11
152000000 -62.44
152266667 -59.88
152533333 -60.39
152800000 -62.96
153066667 -62.86
153333333 -63.79
153600000 -65.08
153866667 -60.4
154133333 -59.68
154400000 -63.61
154666667 -63.29
154933333 -63.88
155200000 -67.32
155466667 -63.04
155733333 -59.32
156000000 -64.23
156266667 -57.94
156533333 -63.14
156800000 -63.04
157066667 -66.21
157333333 -60.29
157600000 -59.13
157866667 -64.0
158133333 -63.8
158400000 -64.79
158666667 -60.22
158933333 -64.38
159200000 -64.09
159466667 -59.49
159733333 -61.18
160000000 -60.81
160266667 -64.6
160533333 -63.66
160800000 -59.52
161066667 -59.26
161333333 -63.38
161600000 -61.02
161866667 -58.84
162133333 -59.4
162400000 -60.81
162666667 -59.9
162933333 -64.85
163200000 -59.96
163466667 -63.04
163733333 -62.37
164000000 -65.54
164266667 -60.28
164533333 -60.45
164800000 -64.48
165066667 -62.09
165333333 -59.34
165600000 -59.66
165866667 -61.36
166133333 -58.75
166400000 -60.68
166666667 -64.29
166933333 -57.67
167200000 -63.45
167466667 -64.03
167733333 -63.45
168000000 -62.34
168266667 -63.88
168533333 -58.1
168800000 -62.55
169066667 -62.09
169333333 -62.66
169600000 -63.67
169866667 -59.21
170133333 -62.39
170400000 -58.96
170666667 -60.22
170933333 -62.22
171200000 -63.43
171466667 -58.22
171733333 -59.66
172000000 -59.11
172266667 -68.4
172533333 -60.08
172800000 -63.2
173066667 -62.66
173333333 -60.65
173600000 -58.76
173866667 -59.99
174133333 -60.48
174400000 -61.91
174666667 -64.56
174933333 -58.43
175200000 -59.62
175466667 -59.02
175733333 -60.57
176000000 -61.86
176266667 -60.23
176533333 -60.76
176800000 -59.26
177066667 -65.22
177333333 -61.22
177600000 -58.9
177866667 -59.2
178133333 -59.8
178400000 -63.83
178666667 -63.68
178933333 -64.39
179200000 -66.07
179466667 -57.57
179733333 -65.69
180000000 -59.46
180266667 -59.53
180533333 -58.76
180800000 -58.84
181066667 -62.32
181333333 -64.53
181600000 -62.68
181866667 -62.85
182133333 -63.24
182400000 -62.18
182666667 -61.93
182933333 -59.34
183200000 -62.39
183466667 -60.64
183733333 -61.92
184000000 -61.81
184266667 -61.6
184533333 -62.07
184800000 -62.1
185066667 -64.26
185333333 -60.85
185600000 -60.76
185866667 -66.21
186133333 -59.09
186400000 -66.12
186666667 -63.94
186933333 -62.03
187200000 -62.09
187466667 -63.3
187733333 -61.54
188000000 -63.82
188266667 -58.16
188533333 -61.61
188800000 -60.55
189066667 -64.05
189333333 -63.77
189600000 -58.3
189866667 -61.22
190133333 -58.64
190400000 -61.55
190666667 -62.46
190933333 -60.96
191200000 -58.94
191466667 -59.0
191733333 -56.84
192000000 -58.17
192266667 -65.82
192533333 -61.19
192800000 -64.54
193066667 -61.35
193333333 -59.26
193600000 -66.55
193866667 -69.76
194133333 -59.79
194400000 -61.84
194666667 -62.19
194933333 -63.8
195200000 -62.32
195466667 -62.65
195733333 -61.11
196000000 -64.27
196266667 -62.15
196533333 -62.01
196800000 -58.95
197066667 -64.49
197333333 -61.3
197600000 -60.84
197866667 -63.14
198133333 -59.59
198400000 -61.43
198666667 -66.03
198933333 -62.99
199200000 -63.95
199466667 -59.75
199733333 -58.91
200000000 -62.29
200266667 -59.62
200533333 -61.47
200800000 -66.23
201066667 -60.36
201333333 -65.56
201600000 -64.46
201866667 -62.26
202133333 -60.86
202400000 -61.5
202666667 -63.2
202933333 -60.2
203200000 -59.31
203466667 -59.51
203733333 -63.97
204000000 -62.42
204266667 -59.66
204533333 -59.47
204800000 -60.28
205066667 -58.23
205333333 -62.46
205600000 -63.2
205866667 -58.52
206133333 -61.29
206400000 -63.0
206666667 -63.28
206933333 -60.26
207200000 -64.82
207466667 -63.9
207733333 -62.34
208000000 -63.53
208266667 -59.17
208533333 -58.32
208800000 -59.29
209066667 -61.22
209333333 -62.59
209600000 -62.87
209866667 -60.87
210133333 -62.48
210400000 -59.36
210666667 -61.96
210933333 -60.13
211200000 -62.47
211466667 -59.05
211733333 -60.53
212000000 -64.91
212266667 -61.5
212533333 -60.2
212800000 -61.41
213066667 -59.88
213333333 -58.75
213600000 -62.22
213866667 -66.05
214133333 -59.71
214400000 -63.95
214666667 -61.91
214933333 -62.55
215200000 -61.86
215466667 -60.2
215733333 -64.41
216000000 -58.05
216266667 -66.39
216533333 -63.12
216800000 -61.91
217066667 -68.24
217333333 -63.14
217600000 -63.18
217866667 -63.25
218133333 -61.09
218400000 -62.12
218666667 -61.42
218933333 -62.1
219200000 -65.46
219466667 -63.19
219733333 -62.1
220000000 -59.39
220266667 -61.46
220533333 -63.3
220800000 -63.44
221066667 -57.52
221333333 -59.55
221600000 -60.32
221866667 -58.77
222133333 -67.34
222400000 -60.85
222666667 -59.56
222933333 -61.2
223200000 -66.56
223466667 -65.03
223733333 -59.49
224000000 -64.53
224266667 -62.03
224533333 -60.75
224800000 -67.94
225066667 -64.54
225333333 -61.1
225600000 -63.67
225866667 -58.87
226133333 -58.1
226400000 -59.34
226666667 -58.87
226933333 -55.76
227200000 -59.42
227466667 -60.66
227733333 -60.31
228000000 -62.36
228266667 -59.54
228533333 -64.86
228800000 -59.36
229066667 -58.57
229333333 -60.06
229600000 -59.52
229866667 -62.82
230133333 -58.13
230400000 -61.32
230666667 -61.42
230933333 -60.46
231200000 -60.08
231466667 -60.38
231733333 -62.79
232000000 -60.42
232266667 -58.37
232533333 -61.88
232800000 -63.34
233066667 -62.79
233333333 -60.19
233600000 -60.72
233866667 -62.4
234133333 -59.58
234400000 -64.87
234666667 -58.88
234933333 -63.57
235200000 -62.4
235466667 -59.76
235733333 -57.97
236000000 -66.51
236266667 -59.58
236533333 -63.76
236800000 -61.33
237066667 -58.18
237333333 -60.85
237600000 -62.03
237866667 -60.8
238133333 -59.92
238400000 -60.75
238666667 -60.9
238933333 -62.18
239200000 -61.66
239466667 -59.54
239733333 -64.53
240000000 -66.43
240266667 -62.9
240533333 -60.98
240800000 -64.04
241066667 -62.83
241333333 -61.75
241600000 -60.5
241866667 -63.25
242133333 -62.85
242400000 -61.51
242666667 -57.05
242933333 -58.45
243200000 -63.17
243466667 -62.81
243733333 -64.46
244000000 -60.9
244266667 -57.95
244533333 -64.68
244800000 -58.49
245066667 -62.19
245333333 -62.39
245600000 -63.43
245866667 -64.86
246133333 -58.98
246400000 -62.16
246666667 -63.64
246933333 -59.73
247200000 -63.0
247466667 -64.69
247733333 -57.62
248000000 -61.01
248266667 -60.57
248533333 -59.32
248800000 -66.27
249066667 -57.54
249333333 -59.94
249600000 -61.85
249866667 -58.96
250133333 -62.09
250400000 -64.18
250666667 -62.56
250933333 -62.8
251200000 -65.37
251466667 -61.96
251733333 -60.39
252000000 -62.5
252266667 -60.9
252533333 -65.6
252800000 -64.31
253066667 -62.58
253333333 -58.25
253600000 -60.05
253866667 -57.08
254133333 -65.15
254400000 -62.94
254666667 -63.21
254933333 -60.2
255200000 -60.27
255466667 -61.18
255733333 -62.76
256000000 -62.08
256266667 -60.93
256533333 -62.16
256800000 -63.58
257066667 -62.98
257333333 -65.18
257600000 -68.24
257866667 -59.76
258133333 -65.17
258400000 -58.75
258666667 -58.95
258933333 -60.59
259200000 -59.32
259466667 -61.18
259733333 -62.4
260000000 -60.35
260266667 -58.61
260533333 -61.41
260800000 -62.51
261066667 -68.81
261333333 -61.2
261600000 -58.63
261866667 -66.03
262133333 -61.63
262400000 -62.23
262666667 -60.37
262933333 -62.21
263200000 -63.13
263466667 -61.2
263733333 -62.05
264000000 -56.04
264266667 -60.33
264533333 -60.29
264800000 -65.18
265066667 -65.09
265333333 -58.44
265600000 -62.45
265866667 -59.29
266133333 -59.63
266400000 -60.72
266666667 -62.5
266933333 -57.37
267200000 -58.82
267466667 -66.42
267733333 -60.61
268000000 -62.34
268266667 -61.64
268533333 -65.36
268800000 -62.62
269066667 -61.91
269333333 -58.44
269600000 -58.78
269866667 -57.47
270133333 -63.43
270400000 -59.97
270666667 -63.63
270933333 -62.48
271200000 -61.19
271466667 -62.4
271733333 -60.19
272000000 -58.63
272266667 -58.68
272533333 -60.03
272800000 -61.04
273066667 -59.84
273333333 -60.86
273600000 -60.71
273866667 -59.87
274133333 -61.66
274400000 -63.15
274666667 -63.24
274933333 -58.81
275200000 -60.51
275466667 -62.1
275733333 -57.47
276000000 -63.01
276266667 -62.29
276533333 -63.21
276800000 -67.5
277066667 -61.68
277333333 -61.45
277600000 -61.54
277866667 -63.13
278133333 -60.57
278400000 -60.27
278666667 -62.64
278933333 -62.39
279200000 -59.77
279466667 -59.82
279733333 -65.32
280000000 -60.99
280266667 -60.73
280533333 -61.01
280800000 -61.62
281066667 -61.05
281333333 -65.65
281600000 -64.99
281866667 -61.05
282133333 -63.01
282400000 -61.04
282666667 -60.56
282933333 -59.91
283200000 -58.85
283466667 -63.24
283733333 -62.33
284000000 -59.63
284266667 -60.27
284533333 -57.05
284800000 -59.14
285066667 -62.81
285333333 -59.7
285600000 -64.01
285866667 -62.7
286133333 -62.09
286400000 -57.02
286666667 -59.66
286933333 -58.51
287200000 -58.88
287466667 -59.42
287733333 -60.01
288000000 -59.38
288266667 -61.05
288533333 -65.09
288800000 -61.6
289066667 -58.86
289333333 -60.51
289600000 -59.18
289866667 -59.51
290133333 -68.55
290400000 -66.69
290666667 -65.85
290933333 -62.05
291200000 -58.9
291466667 -59.62
291733333 -59.65
292000000 -56.22
292266667 -61.82
292533333 -60.73
292800000 -61.79
293066667 -61.42
293333333 -61.88
293600000 -59.81
293866667 -59.24
294133333 -61.94
294400000 -61.46
294666667 -62.44
294933333 -62.17
295200000 -64.89
295466667 -60.91
295733333 -63.63
296000000 -60.48
296266667 -61.88
296533333 -62.8
296800000 -65.38
297066667 -61.2
297333333 -58.7
297600000 -63.58
297866667 -62.61
298133333 -60.35
298400000 -60.82
298666667 -60.67
298933333 -60.78
299200000 -61.74
299466667 -64.09
299733333 -59.09
300000000 -62.35
