!Siglent,SMS1032XV,SVA3XA08C00002,6.0R10
!Date: 2025-11-19 04:44:48
!Data & Calibration Information:
!Freq	S11:(---)
# Hz S DB R 50
50000000	-1.01362628e+00	-1.79448203e+02	
50500000	-1.04453931e+00	1.77289958e+02	
51000000	-1.06533076e+00	1.74002028e+02	
51500000	-1.09978075e+00	1.70777929e+02	
52000000	-1.13672821e+00	1.67493075e+02	
52500000	-1.15173089e+00	1.64185494e+02	
53000000	-1.20162738e+00	1.60930635e+02	
53500000	-1.22461855e+00	1.57653364e+02	
54000000	-1.26738133e+00	1.54280099e+02	
54500000	-1.31647653e+00	1.51000604e+02	
55000000	-1.35584720e+00	1.47686579e+02	
55500000	-1.37572737e+00	1.44431589e+02	
56000000	-1.40243084e+00	1.41216137e+02	
56500000	-1.47502938e+00	1.37858367e+02	
57000000	-1.47113543e+00	1.34696336e+02	
57500000	-1.53779085e+00	1.31349753e+02	
58000000	-1.56046094e+00	1.28084768e+02	
58500000	-1.59233557e+00	1.24793490e+02	
59000000	-1.62034045e+00	1.21568602e+02	
59500000	-1.64211665e+00	1.18276974e+02	
60000000	-1.67981104e+00	1.14963932e+02	
60500000	-1.68932698e+00	1.11728374e+02	
61000000	-1.72241143e+00	1.08248363e+02	
61500000	-1.78175316e+00	1.04755146e+02	
62000000	-1.78418663e+00	1.01365010e+02	
62500000	-1.78756204e+00	9.80624673e+01	
63000000	-1.82265962e+00	9.46628598e+01	
63500000	-1.87819673e+00	9.09970551e+01	
64000000	-1.88384793e+00	8.76706341e+01	
64500000	-1.92657413e+00	8.40920611e+01	
65000000	-1.95044221e+00	8.07963353e+01	
65500000	-1.99575264e+00	7.71045951e+01	
66000000	-1.98384790e+00	7.39346604e+01	
66500000	-2.02579297e+00	7.04808364e+01	
67000000	-2.06701512e+00	6.68860350e+01	
67500000	-2.07262990e+00	6.35284786e+01	
68000000	-2.08764462e+00	6.01495318e+01	
68500000	-2.09624218e+00	5.66800698e+01	
69000000	-2.14839158e+00	5.28011803e+01	
69500000	-2.16751315e+00	4.91913817e+01	
70000000	-2.19939782e+00	4.58674607e+01	
70500000	-2.24584436e+00	4.17550830e+01	
71000000	-2.26907730e+00	3.80193636e+01	
71500000	-2.26879922e+00	3.50951576e+01	
72000000	-2.31437912e+00	3.06837192e+01	
72500000	-2.31977348e+00	2.74274532e+01	
73000000	-2.34577984e+00	2.32166050e+01	
73500000	-2.38446734e+00	2.01149715e+01	
74000000	-2.42245112e+00	1.66075845e+01	
74500000	-2.47128865e+00	1.28081921e+01	
75000000	-2.51557286e+00	9.04525294e+00	
75500000	-2.56899044e+00	5.29807024e+00	
76000000	-2.60621092e+00	2.37042375e+00	
76500000	-2.63964646e+00	-1.61437081e+00	
77000000	-2.67272186e+00	-5.17630570e+00	
77500000	-2.69329514e+00	-8.85924849e+00	
78000000	-2.71199370e+00	-1.27641899e+01	
78500000	-2.75443704e+00	-1.66661742e+01	
79000000	-2.77376729e+00	-2.06229973e+01	
79500000	-2.83264802e+00	-2.37155998e+01	
80000000	-2.86999915e+00	-2.74100940e+01	
80500000	-2.88272528e+00	-3.12997517e+01	
81000000	-2.87263047e+00	-3.55157975e+01	
81500000	-2.89900178e+00	-3.95493528e+01	
82000000	-2.92559224e+00	-4.37109782e+01	
82500000	-2.99885474e+00	-4.74740795e+01	
83000000	-2.98176315e+00	-5.19298636e+01	
83500000	-3.00557925e+00	-5.60953094e+01	
84000000	-3.05078151e+00	-6.04412115e+01	
84500000	-3.08958800e+00	-6.50291021e+01	
85000000	-3.19230418e+00	-6.95898805e+01	
85500000	-3.23890816e+00	-7.47145950e+01	
86000000	-3.39053584e+00	-7.95658244e+01	
86500000	-3.55934641e+00	-8.46884910e+01	
87000000	-3.76053504e+00	-8.99147501e+01	
87500000	-3.95176580e+00	-9.53675773e+01	
88000000	-4.20823593e+00	-1.00768572e+02	
88500000	-4.51696336e+00	-1.06508776e+02	
89000000	-4.82010449e+00	-1.12677634e+02	
89500000	-5.27041263e+00	-1.19498516e+02	
90000000	-5.88171792e+00	-1.27250568e+02	
90500000	-6.72649707e+00	-1.35658479e+02	
91000000	-7.98053208e+00	-1.44508834e+02	
91500000	-9.90399924e+00	-1.53280970e+02	
92000000	-1.26906598e+01	-1.60947885e+02	
92500000	-1.67625071e+01	-1.62975357e+02	
93000000	-2.25940617e+01	-1.46127964e+02	
93500000	-2.44825705e+01	-8.82844267e+01	
94000000	-2.00694739e+01	-5.84233953e+01	
94500000	-1.66435251e+01	-5.01025063e+01	
95000000	-1.41182235e+01	-4.78095762e+01	
95500000	-1.18007398e+01	-4.92028063e+01	
96000000	-1.00153391e+01	-5.20602901e+01	
96500000	-8.32033903e+00	-5.63706945e+01	
97000000	-6.98140409e+00	-6.20364644e+01	
97500000	-5.95780968e+00	-6.84628589e+01	
98000000	-5.13002891e+00	-7.51539300e+01	
98500000	-4.45705968e+00	-8.17503291e+01	
99000000	-3.95377419e+00	-8.80866427e+01	
99500000	-3.56663044e+00	-9.41243043e+01	
100000000	-3.24261835e+00	-9.99183047e+01	
100500000	-3.00744263e+00	-1.05430505e+02	
101000000	-2.77844432e+00	-1.10761433e+02	
101500000	-2.65764071e+00	-1.15742901e+02	
102000000	-2.55519352e+00	-1.20150000e+02	
102500000	-2.43142735e+00	-1.24651465e+02	
103000000	-2.31994729e+00	-1.29102880e+02	
103500000	-2.24843781e+00	-1.33335389e+02	
104000000	-2.19967733e+00	-1.37401561e+02	
104500000	-2.14022388e+00	-1.41270910e+02	
105000000	-2.08854448e+00	-1.45028231e+02	
105500000	-2.04199452e+00	-1.48833285e+02	
106000000	-2.00014964e+00	-1.52519556e+02	
106500000	-1.96620487e+00	-1.56199602e+02	
107000000	-1.94285923e+00	-1.59748476e+02	
107500000	-1.93056320e+00	-1.63271696e+02	
108000000	-1.91939996e+00	-1.66719700e+02	
108500000	-1.91431504e+00	-1.70103816e+02	
109000000	-1.91063180e+00	-1.73404107e+02	
109500000	-1.89643645e+00	-1.76637250e+02	
110000000	-1.90024729e+00	-1.79798923e+02	
110500000	-1.88234565e+00	1.77109799e+02	
111000000	-1.86523956e+00	1.73969594e+02	
111500000	-1.84848647e+00	1.70941219e+02	
112000000	-1.81819855e+00	1.67861831e+02	
112500000	-1.81252691e+00	1.64810334e+02	
113000000	-1.78886370e+00	1.61680755e+02	
113500000	-1.74974221e+00	1.58539847e+02	
114000000	-1.78721250e+00	1.55467425e+02	
114500000	-1.77702491e+00	1.52351556e+02	
115000000	-1.77647992e+00	1.49326268e+02	
115500000	-1.76803940e+00	1.46345063e+02	
116000000	-1.75235208e+00	1.43427926e+02	
116500000	-1.71942906e+00	1.40346610e+02	
117000000	-1.74640239e+00	1.37340736e+02	
117500000	-1.70155595e+00	1.34418505e+02	
118000000	-1.66782817e+00	1.31476380e+02	
118500000	-1.64405585e+00	1.28473075e+02	
119000000	-1.63715466e+00	1.25444376e+02	
119500000	-1.64742513e+00	1.22342955e+02	
120000000	-1.64445960e+00	1.19197919e+02	
120500000	-1.66459218e+00	1.16089348e+02	
121000000	-1.69201928e+00	1.13194897e+02	
121500000	-1.70751037e+00	1.10020475e+02	
122000000	-1.70518239e+00	1.07287869e+02	
122500000	-1.74264933e+00	1.03981140e+02	
123000000	-1.74244095e+00	1.01245878e+02	
123500000	-1.75316813e+00	9.84916417e+01	
124000000	-1.77398362e+00	9.55337448e+01	
124500000	-1.81116555e+00	9.24821674e+01	
125000000	-1.82787826e+00	8.94859986e+01	
125500000	-1.82667340e+00	8.67577270e+01	
126000000	-1.87957908e+00	8.35801740e+01	
126500000	-1.92564086e+00	8.03845213e+01	
127000000	-1.92589998e+00	7.76850752e+01	
127500000	-1.92918106e+00	7.51932174e+01	
128000000	-1.95909722e+00	7.20559131e+01	
128500000	-1.94275158e+00	6.94265335e+01	
129000000	-1.93003584e+00	6.69116768e+01	
129500000	-1.92326785e+00	6.37784888e+01	
130000000	-1.87629360e+00	6.12641298e+01	
130500000	-1.86373870e+00	5.83167960e+01	
131000000	-1.86259984e+00	5.52460226e+01	
131500000	-1.84050470e+00	5.24742428e+01	
132000000	-1.84601434e+00	4.95817851e+01	
132500000	-1.83589041e+00	4.66236139e+01	
133000000	-1.84562621e+00	4.33788337e+01	
133500000	-1.86842701e+00	4.05906404e+01	
134000000	-1.87947406e+00	3.70492535e+01	
134500000	-1.90462413e+00	3.43419515e+01	
135000000	-1.92128808e+00	3.09783982e+01	
135500000	-1.92686930e+00	2.82314682e+01	
136000000	-1.94712823e+00	2.52800349e+01	
136500000	-1.95829290e+00	2.23264535e+01	
137000000	-1.97387800e+00	1.97097529e+01	
137500000	-1.99804692e+00	1.64042814e+01	
138000000	-2.00232788e+00	1.32265943e+01	
138500000	-2.02143895e+00	1.03105645e+01	
139000000	-2.05315496e+00	7.63066878e+00	
139500000	-2.06310316e+00	4.19354921e+00	
140000000	-2.08487412e+00	1.49816362e+00	
140500000	-2.09640816e+00	-1.74614318e+00	
141000000	-2.10508732e+00	-4.62048099e+00	
141500000	-2.12780935e+00	-7.58017535e+00	
142000000	-2.13970994e+00	-1.06566722e+01	
142500000	-2.16387852e+00	-1.34288740e+01	
143000000	-2.18046803e+00	-1.62582159e+01	
143500000	-2.17958873e+00	-1.95047896e+01	
144000000	-2.18160471e+00	-2.27550629e+01	
144500000	-2.20130390e+00	-2.57424051e+01	
145000000	-2.20608521e+00	-2.91155576e+01	
145500000	-2.23875440e+00	-3.21695650e+01	
146000000	-2.26650556e+00	-3.51543466e+01	
146500000	-2.28958989e+00	-3.81510222e+01	
147000000	-2.33819717e+00	-4.09671719e+01	
147500000	-2.32227311e+00	-4.42322498e+01	
148000000	-2.39587573e+00	-4.68719705e+01	
148500000	-2.39609501e+00	-5.00323405e+01	
149000000	-2.38285117e+00	-5.31526015e+01	
149500000	-2.44548993e+00	-5.59327851e+01	
150000000	-2.46117808e+00	-5.89506775e+01	
